84
400
320	1
316	1
314	2
312	1
310	1
309	1
307	1
305	1
303	1
300	1
297	1
294	1
290	1
289	1
280	1
279	1
275	1
271	1
270	1
269	1
268	1
267	1
265	1
262	1
261	1
256	1
255	1
254	1
251	1
244	1
243	2
242	1
239	1
238	1
231	1
225	1
218	1
217	1
209	1
207	1
206	1
200	1
194	2
193	1
184	1
183	1
180	1
173	1
171	1
168	1
166	1
162	1
152	1
150	1
148	1
147	3
139	2
136	1
130	1
129	1
124	1
123	1
111	1
109	1
105	1
99	1
97	1
96	4
93	1
91	1
90	2
89	3
87	1
85	2
81	1
68	1
63	2
62	1
54	1
50	3
46	1
45	1
44	1
42	1
